% demand
num_movements = 32;
loading_factor = [1150, 1450, 1000, 1350, 1700, 1600, 1150, 1450, 1400, 1000, 1050, 850, 950, 1350, 1100, 1250, 1750, 1400, 1650, 1600, 1150, 850, 1300, 800, 1050, 1950, 1750, 1500, 800, 1000, 1000, 1350];
pickup_time = [0, 1, 1, 1, 1, 2, 2, 2, 2, 2, 3, 3, 3, 4, 5, 6, 6, 6, 6, 7, 7, 7, 8, 8, 8, 9, 9, 9, 9, 9, 11, 13];
delivery_time = [1, 2, 2, 2, 2, 3, 4, 3, 3, 3, 4, 5, 6, 5, 6, 7, 8, 7, 8, 9, 9, 9, 9, 9, 9, 13, 14, 14, 12, 10, 14, 14];

% transporter definition
total_capacity = 7000;
num_decks = 3;
capacity = [3000, 1000, 3000];

% ways out of decks
num_ways_out = 1;
paths_out = array3d(decks, ways_out, decks, [
% ways out of deck d1
2, 3, 0, 

% ways out of deck d2
3, 0, 0, 

% ways out of deck d3
0, 0, 0,	

]);

